Score: 1099597
76140 69221
69271 62979
41755 37964
14388 13082
49960 45426
4562 4148
100101 91020
154583 140569
59674 54269
82974 75464
129576 117849
100298 91223
4819 4383
56510 51398
72749 66168
79720 72510
327 298
437 399
706 649
244 225
374 347
87 81
268 253
74 70
